benchmarks_vrp/CMT3/fixed_c_size/CMT3_6.vrp
NAME: CMT3_6
TYPE: CVRP
COMMENT: 826.14 - Cluster Nr.6
DIMENSION: 9
CAPACITY: 200
EDGE_WEIGHT_TYPE: EUC_2D
NODE_COORD_TYPE: TWOD_COORDS
NODE_COORD_SECTION: 
7 60 12
3 65 20
8 55 20
2 67 5
9 57 29
1 63 23
5 53 12
4 35 35
6 55 5
DEPOT_SECTION: 
4
-1
DEMAND_SECTION: 
1 2
3 6
8 19
5 6
2 25
6 29
9 18
7 31
4 0
EOF
