benchmarks_vrp/CMT3/fixed_c_size/CMT3_6.tour
NAME: CMT3_6 solution
TYPE: TOUR
TOUR_SECTION:
4 8 5 6 2 7 3 1 9 -1
-1
EOF